NAME : CasoMejor
COMMENT : Drilling problem (Reinelt)
TYPE : TSP
DIMENSION : 502
EDGE_WEIGHT_TYPE : EUC_2D
NODE_COORD_SECTION
1 0.0000 0.00000
2 1000.0000 0.00001
3 2000.0000 0.00002
4 3000.75100 9.83700
5 4000.87800 1.04090
6 5000.75100 1.13610
7 6000.87800 1.27580
8 7000.87800 1.49810
9 8000.64000 1.50440
10 9000.11640 1.21230
11 9500.01480 1.14880
12 9750.05290 1.13610
EOF
